NAME : n60w200.005.618.tour
COMMENT : Length = 618
COMMENT : Found by LKH [Keld Helsgaun] Tue Nov  7 19:39:24 2017
TYPE : TOUR
DIMENSION : 61
TOUR_SECTION
1
24
47
5
54
56
55
33
25
32
57
37
20
38
10
2
9
39
21
17
59
8
15
35
45
6
27
19
51
11
42
14
36
3
7
50
49
58
28
30
48
22
13
52
46
26
4
29
16
44
18
41
60
43
53
23
34
31
12
40
61
-1
EOF
